c preprocessed version of celar03, 38 vertices, 238 edges
p td 38 238
1 0
0 5
0 4
0 6
0 18
0 7
0 9
21 0
25 0
19 0
1 2
1 16
1 13
1 10
1 17
1 15
1 9
1 18
1 22
20 1
26 1
2 3
2 16
2 13
2 17
2 15
2 9
2 18
2 10
2 11
2 22
14 2
19 2
20 2
26 2
4 3
3 8
3 7
3 9
14 3
21 3
23 3
19 3
20 3
26 3
5 4
4 8
4 7
4 6
21 4
23 4
25 4
20 4
5 6
5 7
5 9
25 5
26 5
7 6
6 17
6 15
6 22
6 9
25 6
19 6
26 6
8 7
21 7
23 7
19 7
20 7
26 7
8 9
14 8
21 8
23 8
19 8
20 8
26 8
10 9
13 9
12 9
9 22
14 9
26 9
10 11
16 10
10 17
10 15
10 18
20 10
12 11
11 22
14 11
19 11
26 11
12 13
12 22
26 12
14 13
13 22
26 13
14 15
21 14
14 22
14 16
14 17
29 14
23 14
19 14
28 14
30 14
20 14
26 14
16 15
17 15
15 18
20 15
26 15
16 17
16 18
19 16
26 16
17 18
19 17
26 17
19 18
20 18
19 20
19 26
19 27
19 28
19 30
20 21
20 23
27 20
28 20
30 20
20 26
21 22
21 23
24 21
26 21
23 22
26 22
24 23
26 23
25 24
27 26
28 26
30 26
27 28
27 30
28 29
28 30
30 29
31 1
31 3
31 7
31 13
31 14
31 16
31 32
31 21
31 34
31 33
31 36
31 19
31 37
31 27
31 35
32 0
32 1
32 2
32 3
32 5
32 6
32 7
32 8
32 9
32 10
32 12
32 13
32 14
32 15
32 16
32 17
32 18
32 21
32 22
32 29
32 33
32 36
32 34
32 19
32 37
32 27
32 30
32 20
32 26
32 35
33 1
33 2
33 3
33 8
33 9
33 12
33 14
33 22
33 34
33 29
33 36
33 19
33 20
33 26
33 35
34 21
34 23
34 24
34 35
34 25
34 36
35 36
35 24
35 25
35 37
35 27
36 37
36 1
36 13
37 33
37 34
37 19
37 20
37 26
37 28
37 27
37 30
